c SAT problem
p wcnf 381 1002
1 -60 75 0
1 60 61 0
1 -90 3165 0
1 -105 -90 0
1 -3120 -165 0
1 -3120 -135 0
1 3120 150 0
1 -3120 -90 0
1 3120 -60 0
1 -3135 -3136 0
1 -3135 196 0
1 -3135 -135 0
1 3135 -150 0
1 -3135 -120 0
1 3150 -151 0
1 3150 121 0
1 -3165 -166 0
1 -135 -3105 0
1 -135 3075 0
1 -135 3060 0
1 150 -3105 0
1 150 3090 0
1 150 3030 0
1 -165 3105 0
1 165 -3045 0
1 -3060 225 0
1 3060 3075 0
1 3060 120 0
1 -3075 -3060 0
1 -3075 120 0
1 3090 226 0
1 3090 -240 0
1 3105 -3106 0
1 3105 105 0
1 -180 3015 0
1 195 -3075 0
1 -195 3045 0
1 225 -226 0
1 -225 -3075 0
1 3000 225 0
1 -3000 165 0
1 3000 -180 0
1 3015 150 0
1 -3015 315 0
1 -3030 225 0
1 3030 300 0
1 3030 180 0
1 3030 150 0
1 3045 -300 0
1 -3045 -315 0
1 61 76 0
1 61 60 0
1 61 -62 0
1 -106 3300 0
1 -3300 -197 0
1 3300 166 0
1 -3300 106 0
1 3300 3315 0
1 3315 136 0
1 3315 -3316 0
1 -3315 -182 0
1 3330 137 0
1 3330 -152 0
1 3330 61 0
1 -121 3150 0
1 121 -3315 0
1 121 3285 0
1 136 -3270 0
1 136 3240 0
1 136 -3255 0
1 -136 3165 0
1 -151 -3240 0
1 151 3150 0
1 -151 3255 0
1 -151 -152 0
1 151 3225 0
1 -166 -3270 0
1 -166 167 0
1 166 -3240 0
1 166 -3210 0
1 -166 -151 0
1 -166 3195 0
1 -166 -3165 0
1 -3240 181 0
1 -3240 151 0
1 -3255 136 0
1 -3255 -106 0
1 -3255 211 0
1 3270 166 0
1 3270 106 0
1 3270 -151 0
1 3285 -197 0
1 -3285 -106 0
1 -3285 -212 0
1 -181 196 0
1 181 -3240 0
1 -181 182 0
1 181 3225 0
1 196 -195 0
1 -196 -3150 0
1 196 -3195 0
1 211 3105 0
1 -211 -3121 0
1 211 3090 0
1 226 -225 0
1 -226 -3105 0
1 226 3180 0
1 -226 -3121 0
1 226 3090 0
1 3180 -166 0
1 -3180 3195 0
1 -3180 -316 0
1 3195 270 0
1 3195 240 0
1 -3195 -3196 0
1 -3195 181 0
1 -3210 -226 0
1 3210 286 0
1 -3225 226 0
1 -3225 -196 0
1 -3225 -166 0
1 3225 3210 0
1 -3225 271 0
1 -3225 -286 0
1 240 -241 0
1 240 3090 0
1 -240 255 0
1 255 3030 0
1 -255 3195 0
1 -270 3180 0
1 270 271 0
1 -270 3061 0
1 270 285 0
1 270 3166 0
1 285 -3106 0
1 285 3045 0
1 285 3151 0
1 -3121 3120 0
1 -3121 -3122 0
1 3121 315 0
1 3136 361 0
1 -3136 240 0
1 3151 361 0
1 3151 -3152 0
1 3151 3166 0
1 -3166 331 0
1 -3166 3165 0
1 -3166 -3167 0
1 300 -3015 0
1 300 3061 0
1 -300 -315 0
1 -315 -300 0
1 -315 -3091 0
1 330 3106 0
1 330 -3001 0
1 345 -3001 0
1 -345 -346 0
1 -3061 270 0
1 3061 -375 0
1 -3076 -360 0
1 3091 420 0
1 -3091 -391 0
1 3091 -330 0
1 -3091 300 0
1 3091 -3090 0
1 -3106 -435 0
1 -3106 -376 0
1 -3106 315 0
1 -360 -3076 0
1 360 -361 0
1 360 -3031 0
1 360 -3061 0
1 -360 3001 0
1 -405 3076 0
1 405 3046 0
1 -3001 -390 0
1 3016 390 0
1 3016 360 0
1 3016 -405 0
1 3016 -345 0
1 3016 3001 0
1 -3031 -3046 0
1 3031 330 0
1 -3031 -435 0
1 3031 -3030 0
1 -3046 -480 0
1 -3046 -3031 0
1 62 3525 0
1 -62 -3510 0
1 77 -76 0
1 92 3495 0
1 -92 -3465 0
1 92 -3450 0
1 -107 -3525 0
1 -107 -3465 0
1 107 3435 0
1 -107 3450 0
1 3495 -137 0
1 -3495 -92 0
1 -3510 -3525 0
1 3510 183 0
1 3525 -3510 0
1 3525 -123 0
1 -3525 -62 0
1 122 -3330 0
1 122 -3435 0
1 -137 136 0
1 -137 3480 0
1 -152 167 0
1 -152 -3435 0
1 -152 -3405 0
1 -152 -153 0
1 -152 3390 0
1 -167 3375 0
1 -167 -3345 0
1 167 3450 0
1 -167 -3420 0
1 3420 -3435 0
1 -3420 3421 0
1 -3435 212 0
1 -3435 -182 0
1 -3450 228 0
1 -3450 -198 0
1 -3450 242 0
1 3450 213 0
1 -3465 228 0
1 3465 -137 0
1 -3465 -107 0
1 3465 3450 0
1 3465 -213 0
1 -3465 183 0
1 182 3345 0
1 -197 3270 0
1 197 3315 0
1 212 -3360 0
1 212 3285 0
1 227 -3331 0
1 -227 228 0
1 -227 3346 0
1 227 -212 0
1 227 -3420 0
1 3360 -241 0
1 -3360 -152 0
1 -3375 -3360 0
1 -3375 -302 0
1 -3375 -3376 0
1 3375 241 0
1 -3390 3391 0
1 3390 -287 0
1 -241 -3270 0
1 256 -3301 0
1 -271 -3331 0
1 -271 -3301 0
1 271 -3375 0
1 -271 -3225 0
1 -286 -3301 0
1 -286 3375 0
1 286 -3346 0
1 -3301 212 0
1 3301 -286 0
1 3316 301 0
1 3316 -271 0
1 -3316 -3315 0
1 3331 -3330 0
1 -3331 -332 0
1 3331 -271 0
1 -3331 241 0
1 3331 -317 0
1 3346 -227 0
1 -3346 -332 0
1 -3346 -3345 0
1 3346 3347 0
1 -3346 212 0
1 3346 347 0
1 3346 317 0
1 3346 -286 0
1 301 -3271 0
1 301 -3180 0
1 -301 -3316 0
1 301 3195 0
1 -316 3195 0
1 -316 315 0
1 -331 -3226 0
1 331 3151 0
1 -331 3256 0
1 331 -3166 0
1 346 -3256 0
1 3241 3256 0
1 3241 3240 0
1 3241 -3242 0
1 3241 271 0
1 3241 -436 0
1 -3241 346 0
1 3256 331 0
1 -3256 436 0
1 3256 -3257 0
1 -3256 316 0
1 -3271 -421 0
1 -3271 -362 0
1 3271 -301 0
1 -3286 392 0
1 -3286 286 0
1 361 3106 0
1 -361 -3181 0
1 -361 -3166 0
1 376 3196 0
1 391 -390 0
1 391 3241 0
1 391 -3181 0
1 -391 406 0
1 406 3106 0
1 -406 -405 0
1 -406 -407 0
1 -406 -3196 0
1 -3181 450 0
1 3181 -435 0
1 -3196 481 0
1 3196 450 0
1 3196 -391 0
1 -3196 361 0
1 3196 -465 0
1 -3226 376 0
1 3226 -3225 0
1 3226 -3227 0
1 420 3196 0
1 -435 3046 0
1 435 -3152 0
1 435 3091 0
1 435 -436 0
1 450 3077 0
1 450 3046 0
1 450 -3181 0
1 450 3031 0
1 465 -450 0
1 -465 -3062 0
1 3122 3121 0
1 -3137 -450 0
1 3137 -420 0
1 3137 435 0
1 3152 -420 0
1 -3152 496 0
1 -3167 420 0
1 3167 556 0
1 -3167 3166 0
1 480 -3046 0
1 -480 -495 0
1 -480 3092 0
1 -495 496 0
1 -495 3122 0
1 495 3031 0
1 510 -3017 0
1 525 3062 0
1 3062 465 0
1 3077 -480 0
1 3092 -3107 0
1 3092 510 0
1 3107 -615 0
1 -3107 -600 0
1 -3107 -541 0
1 540 -3047 0
1 -540 -3062 0
1 -540 -3032 0
1 540 -3002 0
1 -570 -585 0
1 -570 -3017 0
1 -585 -3077 0
1 585 -3032 0
1 3002 -585 0
1 3002 525 0
1 -3002 -540 0
1 3017 -3002 0
1 3017 3016 0
1 3017 -585 0
1 -3017 525 0
1 3017 -510 0
1 3032 -675 0
1 3032 -525 0
1 3032 3031 0
1 3032 570 0
1 -3047 555 0
1 -3047 -525 0
1 3047 510 0
1 -63 3690 0
1 -78 3705 0
1 -78 -63 0
1 93 -3630 0
1 -108 3645 0
1 -108 -3630 0
1 -108 3675 0
1 3660 168 0
1 -3660 -3661 0
1 3675 -168 0
1 3675 -3660 0
1 -3675 -3676 0
1 3675 -93 0
1 -3690 78 0
1 123 3660 0
1 123 3600 0
1 -123 3510 0
1 -138 -3525 0
1 138 -137 0
1 138 3630 0
1 138 -3600 0
1 -138 -3675 0
1 153 -3555 0
1 168 3570 0
1 168 -3645 0
1 3600 138 0
1 -3600 213 0
1 -3600 123 0
1 -3630 258 0
1 -3630 -108 0
1 -3630 123 0
1 -3645 -108 0
1 -3645 153 0
1 183 3555 0
1 -183 -3480 0
1 183 -3600 0
1 198 3465 0
1 198 3600 0
1 -198 -3540 0
1 198 183 0
1 213 3496 0
1 228 3465 0
1 -228 3570 0
1 228 3540 0
1 3555 257 0
1 -3555 -303 0
1 3555 213 0
1 3555 -287 0
1 -3570 -228 0
1 -3570 273 0
1 3570 153 0
1 -3570 318 0
1 -3585 -168 0
1 3585 -3570 0
1 242 -3496 0
1 -257 -242 0
1 -272 3555 0
1 -272 3496 0
1 272 3540 0
1 287 3540 0
1 3481 228 0
1 3481 -378 0
1 -3481 -347 0
1 -3496 -3495 0
1 3496 -242 0
1 -3511 287 0
1 3526 -272 0
1 -302 -3360 0
1 -302 -3331 0
1 -317 -318 0
1 -332 3361 0
1 332 -3466 0
1 332 -3346 0
1 -332 3481 0
1 332 -3421 0
1 -332 3391 0
1 -347 3391 0
1 3421 -407 0
1 3421 3422 0
1 -3421 -287 0
1 -3436 -332 0
1 -3436 -302 0
1 3436 -377 0
1 -3436 -317 0
1 3451 393 0
1 -3451 -317 0
1 3466 272 0
1 3466 -378 0
1 -3466 347 0
1 3466 -287 0
1 -362 -3301 0
1 -362 -361 0
1 377 362 0
1 -377 -3436 0
1 377 -3406 0
1 377 3376 0
1 377 3346 0
1 -377 3391 0
1 -392 -3376 0
1 407 -3361 0
1 -407 3436 0
1 407 3406 0
1 -3361 451 0
1 3361 -421 0
1 3361 -3376 0
1 3361 377 0
1 3376 482 0
1 -3376 421 0
1 -3376 332 0
1 3376 436 0
1 3391 3392 0
1 -3391 -392 0
1 3391 -497 0
1 -3391 -3390 0
1 3406 -3405 0
1 -3406 -3407 0
1 -3406 -437 0
1 3406 3391 0
1 421 -420 0
1 421 -422 0
1 -421 -3302 0
1 -421 3241 0
1 421 -436 0
1 -436 435 0
1 -436 -3317 0
1 436 -3256 0
1 -451 3272 0
1 -451 -3257 0
1 -466 451 0
1 466 -3272 0
1 -466 3242 0
1 -466 3317 0
1 466 3287 0
1 3302 -557 0
1 3302 436 0
1 3317 421 0
1 -3317 -557 0
1 -3317 -3316 0
1 -3317 -3318 0
1 -3332 512 0
1 -3332 -451 0
1 3332 497 0
1 3332 466 0
1 3332 -436 0
1 -3347 512 0
1 -3347 -482 0
1 -3347 -3348 0
1 481 3272 0
1 -481 3242 0
1 481 3152 0
1 496 -3302 0
1 496 -3242 0
1 496 -3211 0
1 -496 3181 0
1 496 -3317 0
1 496 -3226 0
1 -511 512 0
1 511 -3242 0
1 -511 3152 0
1 511 3257 0
1 526 3212 0
1 -526 3182 0
1 -526 3227 0
1 3242 -3257 0
1 -3242 586 0
1 -3242 -496 0
1 3242 -466 0
1 -3242 -541 0
1 -3257 451 0
1 3257 586 0
1 -3257 496 0
1 -3257 571 0
1 3272 -587 0
1 3272 -3287 0
1 -3287 616 0
1 -3287 601 0
1 541 -3137 0
1 -541 3122 0
1 -541 -3257 0
1 541 540 0
1 556 -3092 0
1 556 3227 0
1 -556 3167 0
1 571 3168 0
1 -571 586 0
1 -571 3182 0
1 571 3092 0
1 571 -570 0
1 586 3227 0
1 3182 3181 0
1 -3182 -3197 0
1 -3197 676 0
1 -3197 -3182 0
1 3197 -541 0
1 -3197 -3198 0
1 3212 676 0
1 -3212 3213 0
1 -3212 631 0
1 -3227 -646 0
1 3227 -616 0
1 -3227 -3228 0
1 3227 -511 0
1 -615 3168 0
1 -615 3138 0
1 -615 -3047 0
1 -630 3108 0
1 630 -3047 0
1 -630 3123 0
1 -630 3197 0
1 645 3197 0
1 -3123 675 0
1 3123 645 0
1 3138 -615 0
1 -3138 -630 0
1 -3138 571 0
1 -3153 706 0
1 3153 -676 0
1 660 3138 0
1 660 -675 0
1 -660 -3078 0
1 -660 -3123 0
1 660 -3032 0
1 660 3002 0
1 -675 676 0
1 675 -660 0
1 690 -705 0
1 690 3108 0
1 3063 -675 0
1 -3063 -690 0
1 -3078 645 0
1 3078 750 0
1 3078 -3063 0
1 -3093 675 0
1 3093 630 0
1 -3108 -645 0
1 720 3003 0
1 -735 720 0
1 735 3033 0
1 -735 -3003 0
1 -750 -3018 0
1 -750 3003 0
1 -750 -765 0
1 -3003 -720 0
1 3018 705 0
1 -3033 -3032 0
1 -3033 765 0
1 3033 735 0
1 -3048 3033 0
1 243 3706 0
1 258 257 0
1 -258 -3585 0
1 -258 -243 0
1 258 3706 0
1 -258 -3615 0
1 273 -288 0
1 -273 -3706 0
1 -273 -3676 0
1 -288 -273 0
1 -3661 303 0
1 3661 -348 0
1 3691 -3706 0
1 3706 -3705 0
1 -303 -3540 0
1 -303 3511 0
1 318 -3555 0
1 318 3631 0
1 333 -3526 0
1 -333 332 0
1 333 -3661 0
1 348 3541 0
1 3601 -423 0
1 -3601 333 0
1 -3601 3602 0
1 -3601 438 0
1 -3601 -378 0
1 -3601 348 0
1 3616 303 0
1 363 -3526 0
1 -363 -362 0
1 -363 3466 0
1 363 -3571 0
1 -378 -3526 0
1 393 -3616 0
1 -393 -3571 0
1 393 408 0
1 -408 3616 0
1 -408 -3586 0
1 408 3527 0
1 -408 -3466 0
1 -408 3482 0
1 -3541 -483 0
1 3541 -452 0
1 3541 -422 0
1 -3541 -363 0
1 3541 -333 0
1 3541 -3540 0
1 3541 -437 0
1 -3541 -408 0
1 3556 452 0
1 3571 483 0
1 3571 453 0
1 3571 3570 0
1 -3571 378 0
1 -3571 348 0
1 3586 -333 0
1 -3586 -348 0
1 -422 423 0
1 -422 -3497 0
1 -422 3512 0
1 -437 -3451 0
1 452 451 0
1 -452 -3556 0
1 467 -452 0
1 467 466 0
1 -467 -3391 0
1 3482 -408 0
1 -3482 3481 0
1 -3482 3483 0
1 3497 422 0
1 3497 -3496 0
1 3512 408 0
1 3527 513 0
1 -3527 -483 0
1 -3527 3528 0
1 3527 -498 0
1 3527 408 0
1 -482 -483 0
1 -482 3497 0
1 482 -3482 0
1 -482 3452 0
1 -497 -3332 0
1 497 -496 0
1 497 3376 0
1 -497 3452 0
1 512 3497 0
1 512 3377 0
1 512 3347 0
1 -527 512 0
1 527 -3332 0
1 -527 526 0
1 527 3407 0
1 -527 -3482 0
1 -527 -3452 0
1 -3422 -452 0
1 3422 -572 0
1 -3422 3423 0
1 3437 -482 0
1 3437 497 0
1 -3437 -3422 0
1 3452 527 0
1 3452 3453 0
1 3467 558 0
1 557 -3392 0
1 557 -3302 0
1 557 -3437 0
1 -557 558 0
1 557 -3377 0
1 -572 -3333 0
1 572 3303 0
1 -572 3348 0
1 587 -3392 0
1 3377 677 0
1 -3377 -646 0
1 3377 -527 0
1 -3377 -572 0
1 3392 -677 0
1 3392 587 0
1 3392 572 0
1 -3407 3408 0
1 -601 616 0
1 601 -3212 0
1 601 3377 0
1 -601 -3318 0
1 616 3362 0
1 -616 -615 0
1 -616 -3272 0
1 -616 -617 0
1 -616 3377 0
1 616 -3348 0
1 -616 -601 0
1 -631 3212 0
1 -631 -3258 0
1 646 -3362 0
1 -646 -645 0
1 646 -3333 0
1 646 647 0
1 646 -3243 0
1 -646 -631 0
1 -3303 -676 0
1 3303 -3302 0
1 -3303 -572 0
1 -3318 706 0
1 -3318 676 0
1 3318 -3303 0
1 3318 -3317 0
1 3333 677 0
1 -3333 616 0
1 3348 -646 0
1 -3348 -3347 0
1 661 -3243 0
1 661 3212 0
1 -661 662 0
1 -661 3318 0
1 661 3227 0
1 676 3212 0
1 -676 3227 0
1 -691 3303 0
1 -691 -692 0
1 706 -3168 0
1 -706 3303 0
1 706 -3183 0
1 -706 -3318 0
1 706 -3198 0
1 -3258 676 0
1 3258 -751 0
1 3258 -691 0
1 3258 -661 0
1 -3273 737 0
1 3273 -646 0
1 3273 752 0
1 -3273 -691 0
1 -3288 -676 0
1 3288 646 0
1 -3288 3273 0
1 -3288 -3287 0
1 721 3183 0
1 -736 3168 0
1 751 -750 0
1 -751 -3183 0
1 -751 3198 0
1 766 3243 0
1 -3183 3198 0
1 -3198 -736 0
1 3198 -691 0
1 -3213 706 0
1 3213 721 0
1 423 3692 0
1 423 3662 0
1 -423 -3571 0
1 -423 -3646 0
1 438 -3586 0
1 -438 423 0
1 -438 -3631 0
1 438 3601 0
1 438 -437 0
1 -453 -3647 0
1 468 -3617 0
1 3662 -513 0
1 -3662 -423 0
1 -3662 3661 0
1 -3662 528 0
1 -3662 -3663 0
1 3662 -3677 0
1 3677 -528 0
1 -3677 -3678 0
1 3692 438 0
1 -3692 3707 0
1 -483 482 0
1 483 -3556 0
1 -483 -3527 0
1 -483 3602 0
1 -498 -3512 0
1 -528 3662 0
1 528 3647 0
1 -3602 513 0
1 -3602 -528 0
1 -3617 -513 0
1 -3617 528 0
1 -3617 -498 0
1 -3617 603 0
1 3632 528 0
1 -3632 3633 0
1 3632 468 0
1 3647 513 0
1 3647 -3648 0
1 3647 3646 0
1 3647 -468 0
1 3647 -603 0
1 543 3602 0
1 543 3572 0
1 558 -3557 0
1 -558 -3482 0
1 -558 -3452 0
1 573 3498 0
1 -573 -588 0
1 573 3602 0
1 573 3572 0
1 573 -3542 0
1 -588 3572 0
1 -3542 -617 0
1 3557 -647 0
1 3557 558 0
1 -3557 -528 0
1 3557 632 0
1 -3557 602 0
1 3572 -573 0
1 3572 -543 0
1 -3587 -3586 0
1 3587 648 0
1 3587 618 0
1 -3587 -558 0
1 3587 -573 0
1 -602 -3392 0
1 -602 -3557 0
1 -602 -617 0
1 602 3498 0
1 -602 -3407 0
1 617 -3498 0
1 -617 3437 0
1 617 3513 0
1 632 3542 0
1 632 -631 0
1 -632 -3423 0
1 647 -3392 0
1 647 -648 0
1 -647 -3498 0
1 3483 647 0
1 -3483 -3498 0
1 3483 692 0
1 3498 -617 0
1 3498 632 0
1 -3513 708 0
1 -3513 -588 0
1 3513 693 0
1 3513 -663 0
1 -662 -3498 0
1 -662 -3407 0
1 -677 -3498 0
1 677 -3438 0
1 692 -707 0
1 692 -3333 0
1 692 3408 0
1 -692 3378 0
1 692 -691 0
1 692 693 0
1 692 -3453 0
1 707 706 0
1 707 3333 0
1 -707 -3438 0
1 707 -3348 0
1 3423 707 0
1 -3423 677 0
1 -3423 722 0
1 -3423 692 0
1 -3423 662 0
1 3423 632 0
1 3438 767 0
1 3453 768 0
1 3468 692 0
1 3468 -3453 0
1 -3468 -662 0
1 3468 632 0
1 722 3363 0
1 722 3438 0
1 722 -3408 0
1 -737 3363 0
1 -752 3393 0
1 752 3363 0
1 752 -3423 0
1 752 751 0
1 -752 3408 0
1 -752 -753 0
1 767 3438 0
1 -767 752 0
1 767 766 0
1 -3378 -3363 0
1 3378 752 0
1 3378 767 0
1 -3408 -752 0
1 -3408 -722 0
1 603 -3663 0
1 618 -3693 0
1 -618 -3678 0
1 -633 -3663 0
1 3663 -708 0
1 3663 -3678 0
1 -3663 663 0
1 -3678 -693 0
1 -3678 -633 0
1 3678 -603 0
1 3693 618 0
1 3693 633 0
1 3708 648 0
1 -3708 -3707 0
1 663 3648 0
1 -663 -3633 0
1 -678 3663 0
1 -678 3633 0
1 678 -663 0
1 -678 -3678 0
1 708 3588 0
1 708 693 0
1 -708 -3573 0
1 3603 678 0
1 -3603 648 0
1 3603 -723 0
1 3603 -663 0
1 -3603 -633 0
1 -3618 -678 0
1 -723 738 0
1 723 722 0
1 -723 3573 0
1 -723 -3543 0
1 -738 3618 0
1 738 -723 0
1 -738 3573 0
1 738 3543 0
1 738 -3513 0
1 753 3573 0
1 -753 -3453 0
1 768 -3603 0
1 -768 3453 0
1 -3558 -753 0
1 -3558 3543 0
1 -3573 708 0
1 3573 3588 0
1 -3588 -768 0
1 3588 738 0
1 -3588 -723 0
1 -3588 3573 0
